p wcnf 196 392 393 
1 16 -140 0 
1 41 -172 0 
1 -5 155 0 
1 -58 -34 0 
1 -119 93 0 
1 -121 -74 0 
1 78 -137 0 
1 -108 80 0 
1 2 19 0 
1 139 -177 0 
1 85 3 0 
1 182 -173 0 
1 -164 161 0 
1 -91 5 0 
1 137 155 0 
1 176 -47 0 
1 -175 -134 0 
1 -159 81 0 
1 -196 145 0 
1 -109 10 0 
1 30 -175 0 
1 -27 77 0 
1 100 7 0 
1 -45 178 0 
1 -57 -81 0 
1 51 -190 0 
1 50 -97 0 
1 -134 -19 0 
1 164 -72 0 
1 173 146 0 
1 80 46 0 
1 53 -143 0 
1 184 72 0 
1 132 -127 0 
1 -33 -172 0 
1 117 194 0 
1 -68 55 0 
1 -69 -120 0 
1 -86 9 0 
1 -112 80 0 
1 32 -176 0 
1 112 186 0 
1 -13 141 0 
1 166 -66 0 
1 -190 178 0 
1 172 -79 0 
1 164 63 0 
1 -97 -191 0 
1 82 -177 0 
1 -171 28 0 
1 -123 -154 0 
1 -80 111 0 
1 -12 -72 0 
1 -78 82 0 
1 -34 22 0 
1 -42 188 0 
1 -156 18 0 
1 152 100 0 
1 -102 -152 0 
1 160 -59 0 
1 -166 51 0 
1 -153 -178 0 
1 -132 -14 0 
1 123 -109 0 
1 -19 96 0 
1 170 141 0 
1 -46 -36 0 
1 -58 17 0 
1 -135 63 0 
1 -50 82 0 
1 -9 -150 0 
1 -162 107 0 
1 -45 12 0 
1 -187 -96 0 
1 -16 151 0 
1 -9 75 0 
1 -6 4 0 
1 -129 60 0 
1 -178 -142 0 
1 139 122 0 
1 -41 -62 0 
1 -30 -103 0 
1 -25 159 0 
1 17 -154 0 
1 -17 22 0 
1 -139 -97 0 
1 172 87 0 
1 -133 -195 0 
1 -165 61 0 
1 -47 -137 0 
1 180 -1 0 
1 133 -136 0 
1 172 170 0 
1 -83 194 0 
1 43 19 0 
1 -12 65 0 
1 -62 -135 0 
1 179 -68 0 
1 105 8 0 
1 87 -100 0 
1 130 -176 0 
1 -128 6 0 
1 -66 -193 0 
1 13 28 0 
1 39 170 0 
1 132 9 0 
1 33 -7 0 
1 -159 -164 0 
1 60 164 0 
1 -195 152 0 
1 183 164 0 
1 -125 -43 0 
1 -65 71 0 
1 -25 47 0 
1 78 -80 0 
1 26 107 0 
1 157 -85 0 
1 -14 -89 0 
1 24 181 0 
1 26 -177 0 
1 -110 -78 0 
1 85 -52 0 
1 -74 177 0 
1 -118 -156 0 
1 123 134 0 
1 57 -75 0 
1 96 134 0 
1 -146 149 0 
1 -171 -96 0 
1 59 33 0 
1 115 194 0 
1 -51 107 0 
1 190 -86 0 
1 5 86 0 
1 -163 8 0 
1 -72 184 0 
1 -145 37 0 
1 164 -139 0 
1 -67 122 0 
1 -40 174 0 
1 91 111 0 
1 125 -138 0 
1 -30 9 0 
1 155 144 0 
1 114 184 0 
1 -106 -32 0 
1 125 -160 0 
1 177 141 0 
1 8 -98 0 
1 114 -36 0 
1 -59 -149 0 
1 84 -59 0 
1 -13 62 0 
1 -120 -188 0 
1 -62 133 0 
1 101 -86 0 
1 -111 -18 0 
1 -97 51 0 
1 -126 65 0 
1 106 124 0 
1 -45 17 0 
1 32 4 0 
1 -106 -118 0 
1 69 130 0 
1 -174 128 0 
1 105 69 0 
1 -57 94 0 
1 -13 -48 0 
1 24 -67 0 
1 -142 -112 0 
1 -50 -150 0 
1 172 117 0 
1 72 178 0 
1 108 -106 0 
1 137 96 0 
1 -75 166 0 
1 -33 -141 0 
1 -13 147 0 
1 10 -58 0 
1 -143 141 0 
1 171 52 0 
1 -111 69 0 
1 -110 -152 0 
1 129 -18 0 
1 85 -36 0 
1 -99 -66 0 
1 160 -49 0 
1 40 64 0 
1 -56 50 0 
1 34 -78 0 
1 69 99 0 
1 -196 -125 0 
1 -54 -12 0 
1 55 131 0 
1 -173 -97 0 
1 127 -141 0 
1 -116 165 0 
1 -169 23 0 
1 -97 -152 0 
1 137 183 0 
1 -43 18 0 
1 128 -13 0 
1 113 -151 0 
1 -147 6 0 
1 -138 114 0 
1 25 -107 0 
1 -95 178 0 
1 154 58 0 
1 -104 39 0 
1 125 94 0 
1 64 -156 0 
1 102 -72 0 
1 -141 -45 0 
1 -95 99 0 
1 -114 -185 0 
1 -179 -146 0 
1 88 -96 0 
1 -139 43 0 
1 -79 -135 0 
1 -135 134 0 
1 156 133 0 
1 -120 180 0 
1 -133 3 0 
1 183 158 0 
1 183 -12 0 
1 136 181 0 
1 23 122 0 
1 2 -186 0 
1 79 -126 0 
1 81 -76 0 
1 -79 42 0 
1 98 61 0 
1 57 35 0 
1 92 -192 0 
1 -25 -187 0 
1 178 -150 0 
1 -6 -45 0 
1 114 78 0 
1 -179 -17 0 
1 -58 -34 0 
1 -195 82 0 
1 -32 -68 0 
1 18 -120 0 
1 -184 102 0 
1 -171 -64 0 
1 -133 7 0 
1 54 127 0 
1 10 -18 0 
1 -46 193 0 
1 147 -34 0 
1 -193 162 0 
1 -130 -136 0 
1 43 30 0 
1 7 176 0 
1 -89 75 0 
1 102 121 0 
1 188 193 0 
1 163 -134 0 
1 80 -37 0 
1 -158 156 0 
1 14 -6 0 
1 -134 -195 0 
1 2 54 0 
1 181 -158 0 
1 56 -153 0 
1 190 165 0 
1 81 -128 0 
1 -162 -35 0 
1 165 -138 0 
1 18 120 0 
1 41 -112 0 
1 96 8 0 
1 27 -102 0 
1 8 127 0 
1 173 152 0 
1 -60 57 0 
1 13 63 0 
1 -50 43 0 
1 -159 52 0 
1 -137 -70 0 
1 -99 -62 0 
1 108 -15 0 
1 138 48 0 
1 -153 -187 0 
1 61 -173 0 
1 147 14 0 
1 -187 173 0 
1 -59 -127 0 
1 145 10 0 
1 -135 -101 0 
1 121 -194 0 
1 71 -26 0 
1 56 107 0 
1 -34 -175 0 
1 135 9 0 
1 -162 -103 0 
1 -71 145 0 
1 42 -12 0 
1 -93 90 0 
1 -77 -34 0 
1 -38 -116 0 
1 -30 -45 0 
1 -37 -188 0 
1 22 75 0 
1 60 155 0 
1 108 78 0 
1 -170 96 0 
1 -146 -47 0 
1 -163 -111 0 
1 -97 168 0 
1 63 -154 0 
1 -118 -112 0 
1 128 174 0 
1 69 56 0 
1 -83 60 0 
1 -168 20 0 
1 -99 -135 0 
1 155 -10 0 
1 66 6 0 
1 127 12 0 
1 127 118 0 
1 -113 138 0 
1 -145 -88 0 
1 -40 -13 0 
1 166 -90 0 
1 89 -160 0 
1 -177 -74 0 
1 -149 153 0 
1 -53 -133 0 
1 -139 -59 0 
1 192 -78 0 
1 -76 132 0 
1 -166 167 0 
1 106 -141 0 
1 -91 76 0 
1 168 104 0 
1 -192 158 0 
1 108 40 0 
1 -40 51 0 
1 -62 79 0 
1 110 -24 0 
1 -154 -116 0 
1 78 196 0 
1 101 -74 0 
1 -42 178 0 
1 -97 123 0 
1 124 -172 0 
1 93 -126 0 
1 -145 13 0 
1 -179 130 0 
1 35 53 0 
1 119 -134 0 
1 -73 -144 0 
1 28 62 0 
1 -13 -49 0 
1 -63 -112 0 
1 159 4 0 
1 -43 136 0 
1 -169 -144 0 
1 -170 92 0 
1 -194 -149 0 
1 127 140 0 
1 -58 85 0 
1 53 -29 0 
1 127 23 0 
1 -83 192 0 
1 -21 -98 0 
1 92 -47 0 
1 -177 -126 0 
1 -138 -145 0 
1 -130 -141 0 
1 -155 87 0 
1 51 128 0 
1 -118 -120 0 
1 156 176 0 
1 -4 -175 0 
1 80 126 0 
1 104 -32 0 
1 -69 -11 0 
1 191 -186 0 
1 75 -117 0 
1 97 56 0 
1 137 -58 0 
1 -179 -13 0 
1 -62 -32 0 
1 -130 -15 0 
1 -122 135 0 
1 -130 -190 0 
1 51 103 0 
1 -92 -188 0 
1 47 168 0 
1 148 8 0 
